011001000100010001001011011110100101000100010111011110110100101101010001100001000010111110011011011100001111111101101001101101110110000000001011010110100110001011001101000100100001001000001111101010111010001011000001010001001101011100110111011011101110001101100111100000100110110000101010001111111010010000000000001010010001000000011001101100000111011011011010101000010000010111111101101110000100001101011011110101011101101101110100000100110011010101001000001100011000000100000000110010011001110110011001001000111001000011011001011010110000110110110111010000000100001111101001101001111110111010101001110110010000100100001110110011001100110011001101101001001001101001011110010011100000011011101111011100011110100100000110001100011001011000101111100000000011111000101101101100110110100001000111010000101011101000000111101101101010101011001110111100101101100110110011100100111100011010000001010100100001100110110111111110111011011001000011001101111010101010001000000001100110011010010110110111001100111011100101000101101100100011110111111101111110110110011110101110001010110101111101111000110101110110111010010101000111011100111100000110110100011000100001